rsa_demo_output_128/certs/0006.assert.smt2
; benchmark generated from python API
(set-info :status unknown)
(declare-fun p () Int)
(declare-fun q () Int)
(declare-fun n () Int)
(assert
 (= p 8191))
(assert
 (= q 30520240544598286329117582320504351))
(assert
 (= n 249991290300804563321802116787251139041))
(assert
 (let ((?x31 (* p q)))
 (= ?x31 n)))
(assert
 (> p 1))
(assert
 (> q 1))
(check-sat)
